MA-Pb-I                                 
   1.0000000000000000     
     6.2910601995104720    0.0006666909870852    0.0595919623984662
     0.0003188640417622    6.2222537033601926   -0.0010454592868615
     0.0602134011021621   -0.0006519010624719    6.3632766892327517
   C    N    H    Pb   I 
     1     1     6     1     3
Direct
  0.3963513420000027  0.5000076016999984  0.4466773709999998
  0.6036486579999973  0.4999923983000016  0.5533226290000002
  0.4259506491999971  0.4997564220999990  0.2758894282000028
  0.3074261761999963  0.6452066295000023  0.4928629308000012
  0.3072337298999983  0.3550837957999988  0.4931629809000029
  0.6939930492999977  0.6358632306999965  0.5136370474999978
  0.6938424033000032  0.3638774307000006  0.5139215312999994
  0.5884500654999982  0.5002482240999981  0.7162542351999974
  0.9496862119000014  0.9998107368000007  0.9836715867999999
  0.9075934548000006  0.9999287935999988  0.4814427892000026
  0.9048691481999995  0.4998040162000024  0.0263090966999968
  0.4367339873000020  0.9996032317000001  0.9299824669000003

  0.00000000E+00  0.00000000E+00  0.00000000E+00
  0.00000000E+00  0.00000000E+00  0.00000000E+00
  0.00000000E+00  0.00000000E+00  0.00000000E+00
  0.00000000E+00  0.00000000E+00  0.00000000E+00
  0.00000000E+00  0.00000000E+00  0.00000000E+00
  0.00000000E+00  0.00000000E+00  0.00000000E+00
  0.00000000E+00  0.00000000E+00  0.00000000E+00
  0.00000000E+00  0.00000000E+00  0.00000000E+00
  0.00000000E+00  0.00000000E+00  0.00000000E+00
  0.00000000E+00  0.00000000E+00  0.00000000E+00
  0.00000000E+00  0.00000000E+00  0.00000000E+00
  0.00000000E+00  0.00000000E+00  0.00000000E+00
